c File: flat30_3_0.col
c
c SOURCE: Joseph Culberson (joe@cs.ualberta.ca)
c DESCRIPTION: Quasi-random coloring problem
c              generated with flatness = 0
c                             probability = 0.200
c                             known coloring = 3
c                             random seed = 244261
c              Creation Date:  Fri Nov 29 22:02:37 1996
c Maximum degree = 6 Minimum degree = 1
c
c cnf created by edge2cnf
p cnf 90 300
-1 -2 0
-1 -3 0
-2 -3 0
1 2 3 0
-4 -5 0
-4 -6 0
-5 -6 0
4 5 6 0
-7 -8 0
-7 -9 0
-8 -9 0
7 8 9 0
-10 -11 0
-10 -12 0
-11 -12 0
10 11 12 0
-13 -14 0
-13 -15 0
-14 -15 0
13 14 15 0
-16 -17 0
-16 -18 0
-17 -18 0
16 17 18 0
-19 -20 0
-19 -21 0
-20 -21 0
19 20 21 0
-22 -23 0
-22 -24 0
-23 -24 0
22 23 24 0
-25 -26 0
-25 -27 0
-26 -27 0
25 26 27 0
-28 -29 0
-28 -30 0
-29 -30 0
28 29 30 0
-31 -32 0
-31 -33 0
-32 -33 0
31 32 33 0
-34 -35 0
-34 -36 0
-35 -36 0
34 35 36 0
-37 -38 0
-37 -39 0
-38 -39 0
37 38 39 0
-40 -41 0
-40 -42 0
-41 -42 0
40 41 42 0
-43 -44 0
-43 -45 0
-44 -45 0
43 44 45 0
-46 -47 0
-46 -48 0
-47 -48 0
46 47 48 0
-49 -50 0
-49 -51 0
-50 -51 0
49 50 51 0
-52 -53 0
-52 -54 0
-53 -54 0
52 53 54 0
-55 -56 0
-55 -57 0
-56 -57 0
55 56 57 0
-58 -59 0
-58 -60 0
-59 -60 0
58 59 60 0
-61 -62 0
-61 -63 0
-62 -63 0
61 62 63 0
-64 -65 0
-64 -66 0
-65 -66 0
64 65 66 0
-67 -68 0
-67 -69 0
-68 -69 0
67 68 69 0
-70 -71 0
-70 -72 0
-71 -72 0
70 71 72 0
-73 -74 0
-73 -75 0
-74 -75 0
73 74 75 0
-76 -77 0
-76 -78 0
-77 -78 0
76 77 78 0
-79 -80 0
-79 -81 0
-80 -81 0
79 80 81 0
-82 -83 0
-82 -84 0
-83 -84 0
82 83 84 0
-85 -86 0
-85 -87 0
-86 -87 0
85 86 87 0
-88 -89 0
-88 -90 0
-89 -90 0
88 89 90 0
-49 -1 0
-50 -2 0
-51 -3 0
-55 -1 0
-56 -2 0
-57 -3 0
-43 -4 0
-44 -5 0
-45 -6 0
-52 -4 0
-53 -5 0
-54 -6 0
-58 -4 0
-59 -5 0
-60 -6 0
-67 -4 0
-68 -5 0
-69 -6 0
-49 -7 0
-50 -8 0
-51 -9 0
-61 -7 0
-62 -8 0
-63 -9 0
-73 -7 0
-74 -8 0
-75 -9 0
-88 -7 0
-89 -8 0
-90 -9 0
-40 -10 0
-41 -11 0
-42 -12 0
-46 -10 0
-47 -11 0
-48 -12 0
-55 -10 0
-56 -11 0
-57 -12 0
-76 -10 0
-77 -11 0
-78 -12 0
-79 -10 0
-80 -11 0
-81 -12 0
-88 -10 0
-89 -11 0
-90 -12 0
-43 -13 0
-44 -14 0
-45 -15 0
-61 -13 0
-62 -14 0
-63 -15 0
-64 -13 0
-65 -14 0
-66 -15 0
-76 -13 0
-77 -14 0
-78 -15 0
-34 -16 0
-35 -17 0
-36 -18 0
-46 -16 0
-47 -17 0
-48 -18 0
-61 -16 0
-62 -17 0
-63 -18 0
-70 -16 0
-71 -17 0
-72 -18 0
-31 -19 0
-32 -20 0
-33 -21 0
-37 -19 0
-38 -20 0
-39 -21 0
-43 -19 0
-44 -20 0
-45 -21 0
-70 -19 0
-71 -20 0
-72 -21 0
-79 -22 0
-80 -23 0
-81 -24 0
-85 -22 0
-86 -23 0
-87 -24 0
-49 -25 0
-50 -26 0
-51 -27 0
-55 -25 0
-56 -26 0
-57 -27 0
-64 -25 0
-65 -26 0
-66 -27 0
-67 -25 0
-68 -26 0
-69 -27 0
-70 -25 0
-71 -26 0
-72 -27 0
-34 -28 0
-35 -29 0
-36 -30 0
-46 -28 0
-47 -29 0
-48 -30 0
-52 -28 0
-53 -29 0
-54 -30 0
-64 -28 0
-65 -29 0
-66 -30 0
-67 -28 0
-68 -29 0
-69 -30 0
-70 -31 0
-71 -32 0
-72 -33 0
-88 -31 0
-89 -32 0
-90 -33 0
-61 -34 0
-62 -35 0
-63 -36 0
-64 -34 0
-65 -35 0
-66 -36 0
-76 -34 0
-77 -35 0
-78 -36 0
-67 -37 0
-68 -38 0
-69 -39 0
-82 -37 0
-83 -38 0
-84 -39 0
-88 -37 0
-89 -38 0
-90 -39 0
-70 -40 0
-71 -41 0
-72 -42 0
-76 -40 0
-77 -41 0
-78 -42 0
-82 -40 0
-83 -41 0
-84 -42 0
-61 -43 0
-62 -44 0
-63 -45 0
-64 -46 0
-65 -47 0
-66 -48 0
-79 -46 0
-80 -47 0
-81 -48 0
-88 -46 0
-89 -47 0
-90 -48 0
-76 -49 0
-77 -50 0
-78 -51 0
-67 -52 0
-68 -53 0
-69 -54 0
-73 -52 0
-74 -53 0
-75 -54 0
-61 -58 0
-62 -59 0
-63 -60 0
-64 -58 0
-65 -59 0
-66 -60 0
